Problem:    
Rows:       68
Columns:    29 (20 integer, 20 binary)
Non-zeros:  208
Status:     INTEGER OPTIMAL
Objective:  value = 11.982045 (MINimum)

   No.   Row name        Activity     Lower bound   Upper bound
------ ------------    ------------- ------------- -------------
     1 r.5                   1011.98             0               
     2 r.6                  -988.018      -993.814               
     3 r.7                    11.982             0               
     4 r.8                    11.982      -994.934               
     5 r.9                    11.982             0               
     6 r.10                   11.982      -983.227               
     7 r.11                  1011.98             0               
     8 r.12                 -988.018      -988.071               
     9 r.13                  1011.98             0               
    10 r.14                 -994.204      -999.769               
    11 r.15                   11.982             0               
    12 r.16                   11.982      -998.524               
    13 r.17                  1011.98             0               
    14 r.18                 -999.947      -999.947               
    15 r.19                   11.982             0               
    16 r.20                 0.053445      -998.494               
    17 r.21                        1             1             = 
    18 r.22                        1             1             = 
    19 r.23                        1             1             = 
    20 r.24                        1             1             = 
    21 r.25                     1001             2               
    22 r.26                    -1001         -1001               
    23 r.27                     2000      -983.227               
    24 r.28                     1001             2               
    25 r.29                    -1001         -1001               
    26 r.30                     2000      -988.071               
    27 r.31                        2             2               
    28 r.32                       -2         -1001               
    29 r.33                 -6.18555      -999.769               
    30 r.34                     1000             2               
    31 r.35                    -1000         -1001               
    32 r.36                     2000      -998.524               
    33 r.37                 -988.071      -993.814               
    34 r.38                  11.9286      -994.934               
    35 r.39                 -988.071      -993.814               
    36 r.40                  11.9286      -994.934               
    37 r.41                     1001             2               
    38 r.42                    -1001         -1001               
    39 r.43                     2000       6.18555               
    40 r.44                     1001             2               
    41 r.45                    -1001         -1001               
    42 r.46                     2000       5.06604               
    43 r.47                     1001             2               
    44 r.48                    -1001         -1001               
    45 r.49                  1993.81      -999.769               
    46 r.50                     1001             2               
    47 r.51                    -1001         -1001               
    48 r.52                     2000      -998.524               
    49 r.53                  11.9286      -983.227               
    50 r.54                 -988.071      -988.071               
    51 r.55                  11.9286      -983.227               
    52 r.56                 -988.071      -988.071               
    53 r.57                        2             2               
    54 r.58                       -2         -1001               
    55 r.59                  6.18555       6.18555               
    56 r.60                     1000             2               
    57 r.61                    -1000         -1001               
    58 r.62                     2000       5.06604               
    59 r.63                     1001             2               
    60 r.64                    -1001         -1001               
    61 r.65                  2006.19        16.773               
    62 r.66                     1001             2               
    63 r.67                    -1001         -1001               
    64 r.68                     2000       11.9286               
    65 r.69                 -994.257      -999.769               
    66 r.70                  11.9286      -998.524               
    67 r.71                 -994.257      -999.769               
    68 r.72                  11.9286      -998.524               

   No. Column name       Activity     Lower bound   Upper bound
------ ------------    ------------- ------------- -------------
     1 tt                     11.982             0               
     2 s_1_1        *              1             0             1 
     3 t_1_1                       0             0               
     4 s_2_1        *              0             0             1 
     5 t_2_1                       0             0               
     6 s_1_2        *              0             0             1 
     7 t_1_2                       0             0               
     8 s_2_2        *              1             0             1 
     9 t_2_2                       0             0               
    10 s_1_3        *              1             0             1 
    11 t_1_3                 6.18555             0               
    12 s_2_3        *              0             0             1 
    13 t_2_3                       0             0               
    14 s_1_4        *              1             0             1 
    15 t_1_4                 11.9286             0               
    16 s_2_4        *              0             0             1 
    17 t_2_4                 11.9286             0               
    18 r_1_1_2      *              1             0             1 
    19 u_1_1_2      *              0             0             1 
    20 r_2_1_2      *              1             0             1 
    21 u_2_1_2      *              0             0             1 
    22 r_1_1_3      *              0             0             1 
    23 u_1_1_3      *              0             0             1 
    24 r_2_1_3      *              1             0             1 
    25 u_2_1_3      *              0             0             1 
    26 r_1_2_3      *              1             0             1 
    27 u_1_2_3      *              0             0             1 
    28 r_2_2_3      *              1             0             1 
    29 u_2_2_3      *              0             0             1 

Integer feasibility conditions:

KKT.PE: max.abs.err = 0.00e+00 on row 0
        max.rel.err = 0.00e+00 on row 0
        High quality

KKT.PB: max.abs.err = 0.00e+00 on row 0
        max.rel.err = 0.00e+00 on row 0
        High quality

End of output
